proyfinal/src/viki/013/experimentInOfficeAgust.take6.output/475e3b88-d3c0-4896-8f9c-2d922908c481.als.dat
{'cnf.clauses': '118081',
 'cnf.totvars': '69608',
 'conflict literals': '31',
 'conflicts': '15',
 'decisions': '5615',
 'memused.mb': '15.51',
 'outcome': 'UNSAT',
 'propagations': '29073',
 'restarts': '1',
 'solver.msecs': 33,
 'task.msecs': 97}
