proyfinal/src/viki/013/experimentInOfficeAgust.take6.output/475e3b88-d3c0-4896-8f9c-2d922908c481.als.out
Reading from standard input... Use '--help' for help.
============================[ Problem Statistics ]=============================
|                                                                             |
|  Number of variables:         69608                                         |
|  Number of clauses:          118081                                         |
|  Parse time:                   0.03 s                                       |
|                                                                             |
============================[ Search Statistics ]==============================
| Conflicts |          ORIGINAL         |          LEARNT          | Progress |
|           |    Vars  Clauses Literals |    Limit  Clauses Lit/Cl |          |
===============================================================================
===============================================================================
restarts              : 1
conflicts             : 15             (447 /sec)
decisions             : 5615           (0.00 % random) (167208 /sec)
propagations          : 29073          (865757 /sec)
conflict literals     : 31             (0.00 % deleted)
Memory used           : 15.51 MB
CPU time              : 0.033581 s

UNSATISFIABLE
